p edge 297 -
e 1 2
e 1 3
e 1 4
e 1 5
e 1 6
e 1 7
e 1 8
e 1 9
e 1 10
e 2 8
e 2 11
e 2 13
e 2 73
e 2 75
e 2 85
e 2 116
e 2 130
e 2 131
e 2 132
e 3 5
e 3 9
e 3 13
e 3 68
e 3 87
e 3 119
e 3 126
e 3 152
e 3 153
e 3 154
e 3 155
e 3 156
e 3 157
e 3 158
e 3 159
e 3 160
e 3 161
e 3 162
e 3 163
e 3 164
e 3 165
e 3 166
e 3 167
e 3 168
e 3 169
e 3 170
e 3 174
e 3 176
e 3 177
e 3 178
e 3 179
e 3 180
e 3 181
e 3 182
e 3 183
e 3 184
e 3 185
e 3 186
e 3 187
e 4 13
e 4 118
e 4 126
e 4 152
e 4 155
e 4 156
e 4 160
e 4 161
e 4 162
e 4 163
e 4 169
e 4 174
e 4 179
e 4 180
e 4 181
e 4 183
e 4 187
e 4 190
e 4 196
e 4 197
e 4 198
e 5 3
e 5 119
e 5 152
e 5 155
e 5 156
e 5 160
e 5 161
e 5 162
e 5 163
e 5 169
e 5 173
e 5 174
e 5 175
e 5 179
e 5 180
e 5 181
e 5 183
e 5 190
e 5 196
e 5 197
e 5 198
e 6 4
e 6 9
e 6 11
e 6 12
e 6 13
e 6 14
e 6 15
e 7 24
e 7 26
e 7 28
e 7 35
e 7 36
e 7 44
e 7 47
e 7 48
e 7 49
e 7 51
e 7 73
e 7 74
e 7 75
e 7 76
e 7 78
e 7 89
e 7 95
e 8 2
e 8 3
e 8 4
e 8 7
e 8 60
e 8 74
e 9 4
e 9 5
e 9 6
e 9 15
e 9 37
e 9 103
e 9 104
e 9 109
e 9 194
e 9 214
e 9 215
e 9 236
e 10 5
e 10 6
e 10 8
e 10 25
e 10 104
e 10 109
e 10 214
e 10 219
e 10 237
e 11 14
e 11 15
e 11 103
e 11 125
e 11 139
e 11 143
e 11 209
e 12 4
e 12 13
e 12 14
e 12 15
e 12 119
e 13 3
e 13 4
e 13 17
e 13 85
e 13 118
e 13 152
e 13 153
e 13 154
e 13 155
e 13 156
e 13 157
e 13 158
e 13 159
e 13 160
e 13 161
e 13 162
e 13 163
e 13 164
e 13 165
e 13 166
e 13 167
e 13 168
e 13 169
e 13 170
e 13 171
e 13 172
e 13 173
e 13 174
e 13 175
e 13 176
e 13 177
e 13 178
e 13 179
e 13 180
e 13 181
e 13 182
e 13 183
e 13 184
e 14 7
e 14 24
e 14 35
e 14 36
e 14 44
e 14 47
e 14 48
e 14 49
e 14 74
e 14 75
e 14 76
e 14 78
e 14 89
e 14 210
e 15 4
e 15 5
e 15 12
e 15 13
e 15 14
e 15 76
e 15 87
e 15 115
e 15 119
e 16 5
e 16 17
e 16 18
e 16 19
e 16 20
e 16 21
e 16 22
e 16 23
e 16 24
e 16 25
e 16 26
e 16 27
e 17 2
e 17 3
e 17 13
e 17 20
e 17 23
e 17 74
e 17 85
e 17 93
e 17 99
e 17 114
e 17 115
e 17 116
e 17 117
e 17 118
e 17 119
e 17 120
e 17 121
e 18 23
e 18 24
e 18 42
e 18 45
e 18 54
e 19 5
e 19 15
e 19 16
e 19 18
e 19 24
e 19 36
e 19 44
e 19 48
e 19 52
e 19 72
e 19 73
e 19 74
e 19 75
e 19 76
e 19 77
e 20 18
e 20 21
e 20 23
e 20 47
e 20 60
e 20 71
e 20 81
e 21 3
e 21 13
e 21 74
e 21 75
e 21 76
e 21 90
e 21 131
e 21 133
e 21 210
e 21 211
e 22 3
e 22 13
e 22 74
e 22 75
e 22 76
e 22 78
e 22 86
e 22 107
e 23 56
e 24 45
e 24 47
e 25 45
e 25 49
e 26 191
e 27 23
e 27 45
e 27 50
e 27 52
e 27 65
e 28 4
e 28 21
e 28 22
e 28 29
e 28 30
e 28 31
e 28 32
e 28 33
e 28 34
e 28 35
e 28 36
e 28 37
e 28 38
e 28 39
e 28 40
e 29 115
e 29 123
e 30 31
e 30 34
e 30 36
e 30 45
e 30 51
e 31 7
e 31 30
e 31 33
e 31 34
e 31 39
e 31 50
e 31 52
e 31 53
e 31 60
e 31 65
e 32 4
e 32 5
e 32 8
e 32 28
e 32 30
e 32 36
e 32 46
e 32 47
e 32 48
e 32 49
e 32 50
e 32 59
e 32 67
e 32 74
e 32 75
e 32 76
e 32 78
e 33 22
e 33 30
e 33 31
e 33 34
e 33 44
e 33 50
e 33 60
e 33 82
e 34 69
e 35 7
e 35 14
e 35 38
e 35 44
e 35 45
e 35 48
e 35 73
e 35 75
e 35 113
e 36 44
e 36 45
e 37 45
e 37 50
e 37 94
e 38 191
e 39 34
e 39 44
e 39 45
e 39 50
e 39 51
e 39 65
e 41 23
e 41 42
e 41 43
e 41 44
e 41 45
e 42 5
e 42 24
e 42 41
e 42 44
e 42 45
e 42 47
e 42 48
e 42 49
e 42 50
e 43 18
e 43 23
e 43 30
e 43 34
e 43 41
e 43 46
e 43 85
e 43 87
e 43 99
e 43 120
e 43 138
e 43 168
e 43 169
e 43 173
e 43 174
e 43 186
e 43 219
e 43 233
e 44 7
e 44 24
e 44 36
e 44 45
e 46 34
e 46 45
e 46 47
e 47 24
e 47 45
e 47 80
e 48 7
e 48 14
e 48 32
e 48 36
e 48 45
e 48 49
e 48 215
e 49 7
e 49 14
e 49 24
e 49 45
e 49 48
e 49 214
e 50 45
e 51 4
e 51 24
e 51 36
e 51 44
e 51 45
e 51 46
e 51 47
e 51 48
e 51 49
e 51 52
e 51 53
e 52 45
e 53 5
e 53 7
e 53 10
e 53 22
e 53 33
e 53 34
e 53 38
e 53 49
e 53 85
e 53 87
e 53 100
e 54 5
e 54 14
e 54 15
e 54 18
e 54 24
e 54 47
e 54 60
e 54 76
e 54 79
e 54 87
e 54 91
e 55 12
e 55 15
e 55 23
e 55 41
e 55 50
e 55 52
e 55 56
e 55 57
e 56 22
e 56 36
e 56 79
e 57 23
e 57 36
e 57 41
e 57 45
e 57 52
e 58 22
e 58 34
e 58 46
e 58 50
e 58 52
e 58 59
e 58 60
e 58 61
e 58 62
e 59 4
e 59 8
e 59 21
e 59 22
e 59 24
e 59 25
e 59 32
e 59 46
e 59 47
e 59 51
e 59 62
e 59 69
e 59 70
e 59 83
e 59 86
e 59 88
e 59 89
e 59 96
e 60 6
e 60 7
e 60 8
e 60 14
e 60 15
e 60 16
e 60 20
e 60 23
e 60 28
e 60 33
e 60 34
e 60 40
e 60 50
e 60 56
e 60 59
e 60 65
e 60 67
e 60 69
e 60 72
e 60 92
e 60 100
e 60 103
e 60 106
e 60 109
e 61 8
e 61 15
e 61 45
e 62 34
e 62 45
e 62 47
e 62 50
e 62 61
e 62 83
e 63 4
e 63 20
e 63 21
e 63 42
e 63 48
e 63 49
e 63 50
e 63 56
e 63 60
e 63 64
e 63 65
e 63 66
e 64 3
e 64 4
e 64 9
e 64 10
e 64 13
e 64 14
e 64 19
e 64 25
e 64 35
e 64 42
e 64 48
e 64 60
e 64 63
e 64 72
e 64 82
e 64 84
e 64 86
e 64 94
e 64 95
e 64 102
e 64 130
e 64 210
e 64 216
e 64 226
e 65 45
e 65 75
e 66 4
e 66 9
e 66 12
e 66 14
e 66 21
e 66 85
e 66 99
e 67 32
e 67 33
e 67 39
e 67 48
e 67 51
e 67 52
e 67 60
e 67 65
e 67 68
e 67 69
e 67 70
e 68 3
e 68 5
e 68 9
e 68 10
e 68 13
e 68 32
e 68 49
e 68 59
e 68 60
e 68 64
e 68 88
e 68 99
e 68 107
e 68 119
e 68 130
e 68 213
e 68 219
e 68 225
e 69 21
e 69 22
e 69 24
e 69 37
e 69 80
e 70 22
e 70 38
e 70 48
e 70 49
e 70 51
e 70 53
e 70 59
e 70 67
e 70 87
e 70 88
e 70 89
e 70 90
e 71 6
e 71 14
e 71 18
e 71 20
e 71 23
e 71 27
e 71 50
e 71 52
e 71 60
e 71 65
e 72 5
e 72 15
e 72 19
e 72 21
e 72 22
e 72 23
e 72 37
e 72 41
e 72 42
e 72 44
e 72 56
e 72 57
e 72 77
e 72 84
e 72 90
e 72 91
e 72 94
e 72 95
e 73 3
e 73 19
e 73 94
e 73 115
e 73 131
e 73 133
e 73 215
e 74 7
e 74 14
e 74 45
e 74 76
e 75 7
e 75 14
e 75 45
e 76 7
e 76 14
e 76 24
e 76 45
e 76 74
e 76 210
e 77 5
e 77 15
e 77 36
e 77 44
e 77 74
e 77 75
e 78 7
e 78 14
e 78 35
e 78 36
e 78 43
e 78 45
e 78 75
e 79 191
e 80 191
e 81 191
e 82 191
e 83 4
e 83 5
e 83 8
e 83 24
e 83 47
e 83 74
e 83 75
e 84 22
e 84 26
e 84 36
e 84 42
e 84 66
e 84 72
e 84 85
e 84 86
e 85 3
e 85 5
e 85 87
e 85 119
e 85 143
e 85 152
e 85 153
e 85 156
e 85 157
e 85 158
e 85 159
e 85 164
e 85 176
e 85 181
e 85 188
e 85 189
e 85 190
e 85 191
e 86 13
e 86 45
e 86 61
e 86 212
e 87 4
e 87 13
e 87 85
e 87 118
e 87 152
e 87 153
e 87 156
e 87 157
e 87 158
e 87 159
e 87 164
e 87 176
e 87 181
e 87 188
e 87 189
e 87 190
e 87 191
e 87 192
e 88 3
e 88 5
e 88 44
e 88 45
e 88 47
e 88 48
e 88 49
e 88 53
e 88 87
e 88 104
e 88 107
e 88 110
e 88 118
e 88 120
e 88 237
e 89 191
e 90 3
e 90 45
e 90 61
e 90 213
e 91 4
e 91 5
e 91 8
e 91 15
e 91 16
e 91 24
e 91 28
e 91 32
e 91 48
e 91 49
e 91 59
e 91 72
e 91 74
e 91 75
e 91 76
e 91 78
e 91 92
e 91 131
e 91 133
e 91 188
e 91 214
e 91 219
e 92 4
e 92 7
e 92 8
e 92 13
e 92 24
e 92 30
e 92 36
e 92 44
e 92 78
e 92 79
e 92 80
e 93 4
e 93 5
e 93 40
e 93 49
e 94 4
e 94 13
e 94 26
e 94 37
e 94 44
e 94 45
e 94 48
e 94 49
e 94 66
e 94 72
e 94 79
e 94 87
e 94 102
e 94 105
e 94 115
e 94 142
e 94 217
e 94 236
e 95 191
e 96 13
e 96 62
e 96 64
e 96 68
e 96 73
e 96 120
e 96 126
e 96 143
e 96 173
e 96 199
e 96 205
e 96 208
e 96 241
e 96 242
e 97 45
e 97 61
e 97 98
e 98 45
e 98 167
e 98 222
e 98 228
e 99 3
e 99 4
e 99 85
e 99 87
e 99 119
e 99 120
e 99 126
e 99 146
e 99 173
e 99 187
e 99 192
e 99 199
e 99 203
e 99 207
e 99 208
e 100 3
e 100 5
e 100 7
e 100 8
e 100 53
e 100 108
e 101 12
e 101 14
e 101 20
e 101 102
e 101 103
e 101 104
e 101 105
e 102 2
e 102 3
e 102 4
e 102 23
e 102 78
e 102 85
e 102 87
e 102 99
e 102 115
e 102 133
e 102 225
e 103 2
e 103 5
e 103 14
e 103 60
e 103 90
e 103 101
e 103 105
e 103 114
e 103 115
e 103 133
e 103 136
e 103 137
e 103 138
e 104 6
e 104 7
e 104 12
e 104 14
e 104 53
e 104 66
e 104 103
e 104 109
e 104 138
e 104 192
e 104 202
e 105 45
e 105 65
e 105 132
e 105 223
e 106 7
e 106 10
e 106 53
e 106 90
e 106 100
e 106 104
e 106 107
e 106 108
e 106 109
e 106 110
e 106 111
e 106 112
e 106 113
e 107 4
e 107 34
e 107 76
e 107 85
e 107 87
e 107 120
e 107 131
e 107 210
e 108 7
e 108 8
e 108 106
e 108 109
e 108 140
e 108 192
e 109 2
e 109 4
e 109 5
e 109 7
e 109 86
e 109 113
e 109 115
e 109 123
e 109 131
e 109 138
e 110 3
e 110 5
e 110 7
e 110 87
e 110 88
e 110 106
e 110 107
e 110 112
e 110 115
e 110 118
e 110 119
e 110 123
e 110 143
e 111 7
e 111 29
e 111 87
e 111 104
e 111 106
e 111 109
e 111 113
e 112 3
e 112 4
e 112 7
e 112 10
e 112 13
e 112 85
e 112 87
e 112 106
e 112 126
e 112 131
e 112 146
e 112 173
e 112 188
e 112 191
e 112 194
e 112 199
e 112 202
e 112 234
e 113 45
e 113 65
e 113 73
e 113 224
e 114 2
e 114 102
e 114 103
e 114 116
e 114 125
e 114 141
e 114 142
e 114 150
e 114 192
e 114 216
e 115 3
e 115 4
e 115 14
e 115 15
e 115 74
e 115 87
e 115 131
e 115 132
e 115 133
e 115 134
e 116 2
e 116 11
e 116 108
e 116 114
e 116 115
e 116 123
e 116 125
e 116 127
e 116 129
e 116 139
e 116 140
e 117 2
e 117 13
e 117 14
e 117 23
e 117 85
e 117 101
e 117 104
e 117 114
e 117 118
e 117 119
e 117 133
e 117 142
e 118 13
e 118 85
e 118 119
e 118 126
e 118 152
e 118 153
e 118 154
e 118 157
e 118 158
e 118 160
e 118 161
e 118 162
e 118 163
e 118 164
e 118 167
e 118 168
e 118 171
e 118 174
e 118 177
e 118 179
e 118 180
e 118 182
e 118 183
e 118 187
e 118 193
e 118 194
e 118 195
e 119 3
e 119 87
e 119 118
e 119 152
e 119 153
e 119 154
e 119 157
e 119 158
e 119 160
e 119 161
e 119 162
e 119 163
e 119 164
e 119 167
e 119 168
e 119 173
e 119 174
e 119 175
e 119 177
e 119 179
e 119 180
e 119 182
e 119 183
e 119 185
e 119 193
e 119 194
e 119 195
e 120 5
e 120 13
e 120 85
e 120 87
e 120 91
e 120 118
e 120 124
e 120 126
e 120 143
e 120 149
e 120 173
e 120 175
e 120 200
e 120 205
e 120 206
e 121 14
e 121 85
e 121 86
e 121 101
e 121 103
e 121 115
e 122 3
e 122 21
e 122 22
e 122 32
e 122 85
e 122 87
e 122 99
e 122 110
e 122 115
e 122 116
e 122 118
e 122 119
e 122 123
e 122 124
e 122 125
e 122 126
e 123 107
e 123 109
e 123 115
e 123 116
e 123 122
e 123 125
e 123 140
e 123 206
e 124 9
e 124 85
e 124 90
e 124 99
e 124 104
e 124 105
e 124 119
e 124 120
e 124 122
e 124 146
e 124 199
e 124 201
e 124 202
e 124 203
e 124 204
e 125 2
e 125 11
e 125 108
e 125 115
e 125 122
e 125 123
e 125 139
e 126 3
e 126 4
e 126 5
e 126 13
e 126 43
e 126 79
e 126 85
e 126 87
e 126 91
e 126 97
e 126 118
e 126 119
e 126 120
e 126 138
e 126 152
e 126 155
e 126 161
e 126 169
e 126 170
e 126 172
e 126 173
e 126 185
e 126 188
e 126 193
e 126 233
e 126 254
e 126 255
e 126 257
e 126 263
e 126 264
e 126 265
e 126 266
e 126 267
e 126 268
e 127 11
e 127 128
e 128 2
e 128 6
e 128 15
e 128 40
e 128 97
e 128 114
e 128 116
e 128 127
e 129 108
e 129 116
e 130 2
e 130 3
e 130 13
e 130 64
e 130 68
e 130 85
e 130 87
e 130 115
e 130 118
e 130 119
e 130 138
e 130 225
e 131 2
e 131 8
e 131 13
e 131 45
e 131 48
e 131 49
e 131 74
e 131 75
e 131 85
e 131 87
e 131 91
e 131 107
e 131 120
e 131 211
e 131 212
e 131 213
e 131 214
e 132 2
e 132 13
e 132 94
e 132 131
e 132 133
e 133 13
e 133 15
e 133 45
e 133 48
e 133 49
e 133 73
e 133 75
e 133 78
e 133 85
e 133 87
e 133 91
e 133 211
e 133 212
e 133 213
e 134 45
e 134 73
e 134 115
e 134 132
e 134 133
e 134 174
e 134 179
e 134 180
e 134 197
e 134 198
e 134 201
e 134 215
e 134 220
e 135 1
e 135 8
e 135 15
e 135 29
e 135 40
e 135 100
e 135 129
e 135 136
e 136 2
e 136 7
e 136 11
e 136 106
e 136 108
e 136 114
e 136 115
e 136 125
e 136 139
e 137 2
e 137 11
e 137 103
e 137 116
e 137 125
e 137 136
e 137 139
e 137 142
e 138 4
e 138 5
e 138 7
e 138 12
e 138 13
e 138 14
e 138 43
e 138 73
e 138 85
e 138 86
e 138 90
e 138 100
e 138 103
e 138 104
e 138 105
e 138 113
e 138 126
e 138 131
e 138 134
e 138 169
e 138 170
e 138 178
e 138 186
e 138 193
e 138 202
e 138 212
e 138 213
e 138 233
e 138 254
e 138 255
e 139 2
e 139 11
e 139 13
e 139 14
e 139 114
e 139 115
e 139 123
e 140 104
e 140 106
e 140 108
e 140 109
e 140 111
e 140 116
e 140 129
e 140 136
e 140 206
e 141 2
e 141 114
e 141 128
e 141 142
e 142 2
e 142 114
e 142 145
e 142 150
e 143 2
e 143 45
e 143 88
e 143 96
e 143 103
e 143 109
e 143 115
e 143 117
e 143 118
e 143 120
e 143 121
e 143 131
e 143 149
e 143 158
e 143 164
e 143 165
e 143 170
e 143 174
e 143 182
e 143 183
e 143 187
e 143 192
e 143 203
e 143 205
e 143 206
e 143 239
e 143 245
e 143 246
e 144 110
e 144 123
e 144 125
e 144 136
e 144 139
e 145 142
e 145 146
e 146 40
e 146 94
e 146 114
e 146 142
e 146 145
e 146 188
e 146 192
e 146 194
e 146 196
e 146 201
e 146 220
e 147 143
e 147 148
e 147 149
e 148 115
e 148 123
e 148 140
e 148 151
e 149 40
e 149 123
e 149 143
e 149 148
e 149 188
e 149 194
e 149 196
e 149 200
e 149 201
e 149 206
e 149 220
e 150 5
e 150 40
e 150 87
e 150 105
e 150 114
e 150 118
e 150 119
e 150 120
e 150 124
e 150 141
e 150 142
e 150 146
e 150 199
e 150 200
e 150 203
e 150 216
e 150 217
e 151 29
e 151 40
e 151 88
e 151 99
e 151 119
e 151 123
e 151 143
e 151 147
e 151 148
e 151 192
e 151 200
e 151 203
e 151 206
e 152 45
e 152 160
e 152 201
e 153 45
e 153 166
e 153 250
e 153 269
e 154 45
e 154 162
e 154 167
e 154 168
e 154 228
e 154 250
e 155 45
e 155 161
e 155 198
e 156 45
e 156 162
e 156 190
e 156 198
e 157 45
e 157 190
e 157 232
e 158 45
e 158 163
e 158 232
e 158 235
e 159 45
e 159 164
e 159 235
e 159 270
e 160 45
e 160 198
e 160 201
e 161 45
e 161 190
e 161 198
e 161 201
e 161 220
e 162 45
e 162 163
e 162 190
e 162 232
e 162 234
e 163 45
e 163 164
e 163 232
e 163 235
e 163 270
e 163 276
e 164 45
e 164 165
e 164 270
e 164 272
e 164 277
e 165 45
e 165 166
e 165 269
e 165 274
e 165 277
e 166 45
e 166 98
e 166 167
e 166 228
e 166 250
e 167 45
e 167 98
e 167 168
e 167 222
e 167 228
e 168 45
e 168 98
e 168 222
e 168 228
e 169 45
e 169 157
e 169 190
e 169 232
e 169 234
e 169 235
e 169 270
e 169 276
e 170 45
e 170 235
e 170 270
e 170 271
e 170 272
e 170 273
e 170 274
e 170 277
e 170 278
e 171 3
e 171 13
e 171 118
e 171 119
e 171 120
e 171 208
e 171 256
e 171 257
e 172 43
e 172 126
e 172 138
e 172 186
e 172 191
e 172 214
e 172 218
e 172 247
e 173 3
e 173 4
e 173 5
e 173 13
e 173 43
e 173 80
e 173 85
e 173 87
e 173 97
e 173 118
e 173 119
e 173 126
e 173 130
e 173 138
e 173 152
e 173 155
e 173 161
e 173 169
e 173 170
e 173 171
e 173 186
e 173 188
e 173 193
e 173 202
e 173 221
e 173 233
e 173 254
e 173 255
e 173 263
e 173 264
e 173 265
e 173 266
e 173 267
e 173 268
e 174 179
e 175 191
e 176 45
e 176 177
e 176 278
e 177 45
e 177 98
e 177 178
e 177 228
e 177 250
e 178 45
e 178 98
e 178 126
e 178 154
e 178 167
e 178 168
e 178 171
e 178 173
e 178 177
e 178 184
e 178 222
e 178 254
e 179 45
e 179 180
e 179 198
e 179 201
e 179 220
e 180 45
e 180 181
e 180 190
e 180 198
e 180 220
e 180 234
e 181 45
e 181 182
e 181 232
e 181 234
e 182 45
e 182 183
e 182 232
e 182 235
e 182 276
e 183 45
e 183 189
e 183 276
e 184 45
e 184 178
e 185 3
e 185 13
e 185 43
e 185 99
e 185 118
e 185 119
e 185 173
e 185 195
e 185 257
e 186 43
e 186 138
e 186 172
e 186 173
e 186 191
e 186 218
e 186 219
e 186 247
e 187 191
e 188 5
e 188 45
e 188 98
e 188 112
e 188 152
e 188 161
e 188 174
e 188 175
e 188 200
e 188 220
e 188 221
e 188 222
e 189 45
e 189 270
e 189 272
e 189 277
e 189 280
e 190 45
e 190 156
e 190 238
e 192 45
e 192 103
e 192 109
e 192 110
e 192 111
e 192 114
e 192 117
e 192 118
e 192 120
e 192 121
e 192 133
e 192 142
e 192 143
e 192 147
e 192 158
e 192 164
e 192 174
e 192 183
e 192 187
e 192 203
e 192 216
e 192 239
e 192 245
e 193 45
e 193 158
e 193 159
e 193 232
e 193 235
e 193 270
e 193 272
e 193 276
e 193 277
e 194 2
e 194 3
e 194 9
e 194 10
e 194 13
e 194 15
e 194 85
e 194 115
e 194 196
e 194 211
e 194 214
e 194 215
e 194 219
e 195 3
e 195 13
e 195 119
e 195 171
e 195 205
e 195 227
e 196 2
e 196 9
e 196 10
e 196 45
e 196 60
e 196 65
e 196 86
e 196 98
e 196 112
e 196 115
e 196 167
e 196 188
e 196 191
e 196 194
e 196 211
e 196 214
e 196 215
e 196 219
e 196 251
e 197 45
e 197 134
e 197 179
e 197 201
e 197 220
e 198 45
e 198 156
e 198 238
e 199 86
e 199 87
e 199 99
e 199 104
e 199 106
e 199 111
e 199 112
e 199 113
e 199 118
e 199 120
e 199 124
e 199 131
e 199 149
e 199 200
e 199 201
e 200 45
e 200 85
e 200 87
e 200 120
e 200 124
e 200 143
e 200 146
e 200 186
e 200 188
e 200 203
e 200 227
e 200 228
e 201 45
e 201 197
e 201 220
e 202 1
e 202 3
e 202 6
e 202 7
e 202 13
e 202 14
e 202 66
e 202 85
e 202 87
e 202 118
e 202 119
e 202 120
e 202 126
e 202 138
e 202 173
e 202 204
e 203 45
e 203 85
e 203 99
e 203 124
e 203 134
e 203 146
e 203 172
e 203 188
e 203 192
e 203 200
e 203 227
e 203 228
e 204 3
e 204 5
e 204 9
e 204 13
e 204 85
e 204 87
e 204 102
e 204 119
e 204 124
e 204 149
e 204 173
e 204 188
e 204 191
e 204 194
e 204 202
e 204 234
e 205 3
e 205 5
e 205 45
e 205 87
e 205 96
e 205 99
e 205 119
e 205 120
e 205 173
e 205 188
e 205 190
e 205 191
e 205 195
e 205 200
e 205 206
e 205 208
e 205 220
e 205 221
e 205 222
e 205 226
e 205 227
e 205 232
e 205 234
e 205 239
e 205 246
e 205 253
e 206 34
e 206 85
e 206 87
e 206 99
e 206 110
e 206 112
e 206 120
e 206 126
e 206 131
e 206 143
e 206 173
e 206 199
e 206 203
e 207 43
e 207 68
e 207 79
e 207 85
e 207 87
e 207 96
e 207 97
e 207 99
e 207 126
e 207 160
e 207 173
e 207 226
e 208 3
e 208 5
e 208 45
e 208 87
e 208 96
e 208 99
e 208 119
e 208 120
e 208 173
e 208 188
e 208 190
e 208 191
e 208 195
e 208 200
e 208 205
e 208 206
e 208 220
e 208 222
e 208 227
e 208 232
e 208 234
e 208 239
e 208 246
e 208 253
e 208 257
e 209 11
e 209 102
e 209 103
e 209 121
e 209 127
e 209 136
e 209 141
e 210 7
e 210 14
e 210 24
e 210 26
e 210 45
e 210 47
e 210 49
e 210 65
e 210 74
e 210 76
e 210 132
e 211 45
e 211 49
e 211 115
e 211 214
e 211 219
e 212 13
e 212 32
e 212 75
e 212 131
e 212 133
e 212 211
e 213 3
e 213 74
e 213 131
e 213 133
e 214 4
e 214 5
e 214 38
e 214 73
e 214 85
e 214 131
e 214 133
e 214 138
e 214 149
e 214 186
e 214 191
e 214 207
e 214 218
e 215 2
e 215 45
e 215 48
e 215 49
e 215 88
e 215 214
e 215 219
e 216 85
e 216 87
e 216 99
e 216 124
e 216 131
e 216 133
e 216 204
e 216 217
e 217 4
e 217 16
e 217 36
e 217 72
e 217 94
e 217 119
e 217 126
e 217 173
e 217 226
e 217 240
e 218 43
e 218 126
e 218 138
e 218 172
e 218 191
e 218 207
e 218 214
e 219 74
e 219 75
e 219 76
e 219 86
e 219 131
e 219 132
e 219 133
e 219 138
e 219 146
e 219 172
e 219 191
e 219 204
e 219 218
e 220 45
e 220 160
e 220 198
e 220 201
e 221 3
e 221 119
e 221 120
e 221 173
e 221 178
e 221 253
e 221 257
e 222 45
e 222 178
e 223 73
e 223 113
e 224 105
e 224 132
e 225 3
e 225 4
e 225 5
e 225 13
e 225 68
e 225 85
e 225 87
e 225 115
e 225 118
e 225 119
e 225 126
e 225 130
e 225 134
e 225 138
e 225 191
e 226 3
e 226 40
e 226 57
e 226 64
e 226 99
e 226 126
e 226 132
e 226 192
e 226 199
e 226 205
e 226 208
e 227 3
e 227 5
e 227 13
e 227 85
e 227 99
e 227 112
e 227 118
e 227 119
e 227 126
e 227 146
e 227 149
e 227 167
e 227 173
e 227 177
e 227 191
e 227 196
e 227 203
e 227 204
e 227 205
e 227 208
e 227 229
e 227 230
e 228 45
e 229 119
e 229 124
e 229 138
e 229 146
e 229 167
e 229 199
e 229 203
e 229 227
e 229 230
e 229 256
e 229 258
e 230 124
e 230 138
e 230 146
e 230 227
e 230 229
e 230 256
e 230 258
e 231 45
e 231 152
e 231 155
e 231 190
e 231 198
e 231 201
e 231 220
e 231 232
e 232 45
e 233 45
e 233 156
e 233 190
e 233 198
e 233 220
e 233 232
e 233 234
e 233 235
e 234 45
e 234 162
e 234 190
e 234 232
e 235 45
e 236 78
e 236 86
e 236 212
e 237 37
e 237 75
e 237 78
e 237 90
e 237 213
e 238 45
e 238 179
e 238 190
e 238 198
e 238 220
e 238 234
e 238 239
e 239 45
e 239 143
e 239 201
e 239 232
e 239 234
e 240 3
e 240 4
e 240 13
e 240 22
e 240 91
e 240 115
e 240 130
e 240 215
e 240 217
e 241 24
e 241 28
e 241 59
e 241 89
e 241 96
e 241 173
e 242 2
e 242 13
e 242 17
e 242 25
e 242 37
e 242 85
e 242 87
e 242 138
e 243 191
e 244 191
e 245 45
e 245 194
e 245 196
e 245 200
e 245 203
e 245 246
e 245 284
e 246 45
e 246 143
e 246 149
e 246 188
e 246 190
e 246 198
e 246 201
e 246 220
e 246 232
e 246 234
e 246 235
e 246 239
e 246 253
e 246 270
e 246 272
e 246 276
e 246 277
e 246 283
e 246 284
e 247 45
e 247 176
e 247 269
e 247 274
e 247 278
e 248 13
e 248 138
e 248 173
e 248 191
e 248 249
e 249 3
e 249 126
e 249 138
e 249 191
e 249 248
e 250 45
e 251 45
e 251 98
e 251 168
e 251 205
e 252 45
e 252 98
e 253 191
e 254 45
e 254 98
e 254 153
e 254 154
e 254 228
e 254 250
e 254 269
e 254 274
e 255 45
e 255 98
e 255 178
e 256 3
e 256 13
e 256 118
e 256 126
e 256 178
e 256 258
e 257 13
e 257 99
e 257 118
e 257 126
e 257 178
e 257 221
e 257 253
e 258 3
e 258 13
e 258 118
e 258 119
e 258 126
e 258 173
e 258 178
e 258 256
e 259 13
e 259 126
e 259 138
e 259 171
e 259 178
e 260 124
e 260 138
e 260 168
e 260 173
e 260 178
e 260 185
e 260 259
e 261 192
e 262 13
e 262 118
e 262 138
e 262 143
e 262 173
e 262 186
e 263 45
e 263 234
e 264 45
e 264 234
e 264 276
e 265 45
e 265 276
e 266 45
e 266 276
e 266 277
e 267 45
e 267 277
e 268 45
e 268 277
e 268 278
e 269 45
e 270 45
e 271 45
e 271 270
e 271 272
e 272 45
e 273 45
e 273 165
e 273 272
e 273 274
e 274 45
e 275 45
e 275 269
e 275 274
e 276 45
e 276 163
e 276 235
e 276 270
e 277 45
e 277 165
e 277 272
e 277 274
e 278 45
e 278 166
e 278 250
e 278 269
e 279 45
e 279 98
e 279 269
e 279 270
e 279 272
e 279 274
e 279 275
e 279 278
e 280 45
e 280 247
e 280 277
e 281 45
e 281 98
e 281 278
e 282 45
e 282 278
e 283 45
e 283 143
e 283 201
e 283 220
e 283 239
e 284 45
e 284 194
e 284 196
e 284 200
e 284 203
e 284 245
e 284 277
e 285 45
e 285 143
e 285 146
e 285 184
e 285 188
e 285 222
e 285 228
e 285 234
e 285 245
e 285 250
e 285 269
e 285 272
e 285 274
e 285 276
e 285 277
e 285 278
e 286 45
e 287 45
e 288 45
e 289 45
e 290 45
e 291 45
e 292 45
e 293 45
e 294 45
e 295 45
e 296 191
e 297 191
